c turning on binary mode checking
c parsing input formula with 5000 variables and 21250 clauses
c finished parsing, read 26727595 bytes from proof file
c detected empty clause; start verification via backward checking
c 17418 of 21250 clauses in core                            
c 476665 of 556380 lemmas in core using 29322170 resolution steps
c 0 RAT lemmas in core; 121492 redundant literals in core lemmas
s VERIFIED
c verification time: 68.921 seconds
